
(set-logic ALL) 

(declare-datatype MyList ((Nil) (Cons (head Real) (tail MyList)) )) 
(declare-fun l0 () MyList) 
(declare-fun l1 () MyList) 
(declare-fun l2 () MyList) 
(declare-fun l3 () MyList) 
(declare-fun i0 () Real) 
(declare-fun i1 () Real) 
(assert (and (= l3 l2) (is-Cons Nil) (= l3 Nil)) )
(assert (not (= l0 Nil)) )
(assert (is-Nil l3) )
(assert (not (= l3 Nil)) )
(assert (or (= l2 Nil) (= l1 Nil) (= l3 l2)) )
(assert (is-Nil Nil) )
(assert (is-Cons l0) )
(assert (is-Cons l0) )
(check-sat)
